p cnf 11 21
-11 -10 -4 0
11 -10 -1 0
-11 9 3 0
-11 8 1 0
-11 6 -3 0
11 -3 1 0
-10 9 -8 0
10 9 -1 0
10 -8 4 0
9 8 6 0
9 5 -4 0
-9 4 -3 0
9 4 -1 0
9 -4 -1 0
-8 -7 3 0
-8 -5 -2 0
8 -3 2 0
-7 -5 4 0
-5 -4 2 0
5 3 -2 0
4 -3 -1 0
